objective value:                   -0.673178710118135
h-1,34                                           0.05 	(obj:0)
h-1,35                                           0.05 	(obj:0)
h-1,80                                           0.05 	(obj:0)
h-1,81                                           0.05 	(obj:0)
h-1,90                                           0.05 	(obj:0)
h-1,91                                           0.05 	(obj:0)
h-1,92                                           0.05 	(obj:0)
h-1,93                                           0.05 	(obj:0)
h-1,94                                           0.05 	(obj:0)
h-1,95                                           0.05 	(obj:0)
h-1,96                                           0.05 	(obj:0)
h-1,97                                           0.05 	(obj:0)
h-1,98                                           0.05 	(obj:0)
h-1,109                                          0.05 	(obj:0)
h-1,118                                          0.05 	(obj:0)
h-1,119                                          0.05 	(obj:0)
h-1,120                                          0.05 	(obj:0)
h-1,121                                          0.05 	(obj:0)
h-1,122                                          0.05 	(obj:0)
h-1,123                                          0.05 	(obj:0)
h-1,124                                          0.05 	(obj:0)
h-1,125                                          0.05 	(obj:0)
h-1,126                                          0.05 	(obj:0)
h-1,127                                          0.05 	(obj:0)
h-1,128                             0.199019613862038 	(obj:0)
h-1,129                             0.946078431606293 	(obj:0)
h-1,130                             0.377450984716415 	(obj:0)
h-1,137                                          0.05 	(obj:0)
h-1,143                                          0.05 	(obj:0)
h-1,144                                          0.05 	(obj:0)
h-1,145                                          0.05 	(obj:0)
h-1,146                                          0.05 	(obj:0)
h-1,147                                          0.05 	(obj:0)
h-1,148                                          0.05 	(obj:0)
h-1,149                                          0.05 	(obj:0)
h-1,150                                          0.05 	(obj:0)
h-1,151                                          0.05 	(obj:0)
h-1,152                                          0.05 	(obj:0)
h-1,153                                          0.05 	(obj:0)
h-1,154                                          0.05 	(obj:0)
h-1,155                                          0.05 	(obj:0)
h-1,156                             0.391176480054855 	(obj:0)
h-1,157                                             1 	(obj:0)
h-1,158                             0.371568638086319 	(obj:0)
h-1,171                                          0.05 	(obj:0)
h-1,172                                          0.05 	(obj:0)
h-1,173                                          0.05 	(obj:0)
h-1,174                                          0.05 	(obj:0)
h-1,175                                          0.05 	(obj:0)
h-1,176                                          0.05 	(obj:0)
h-1,177                                          0.05 	(obj:0)
h-1,178                                          0.05 	(obj:0)
h-1,179                                          0.05 	(obj:0)
h-1,180                                          0.05 	(obj:0)
h-1,181                                          0.05 	(obj:0)
h-1,182                                          0.05 	(obj:0)
h-1,183                                          0.05 	(obj:0)
h-1,184                             0.579411792755127 	(obj:0)
h-1,185                             0.995098042488098 	(obj:0)
h-1,198                                          0.05 	(obj:0)
h-1,199                                          0.05 	(obj:0)
h-1,200                                          0.05 	(obj:0)
h-1,201                                          0.05 	(obj:0)
h-1,202                                          0.05 	(obj:0)
h-1,203                                          0.05 	(obj:0)
h-1,204                                          0.05 	(obj:0)
h-1,205                                          0.05 	(obj:0)
h-1,206                                          0.05 	(obj:0)
h-1,207                                          0.05 	(obj:0)
h-1,208                                          0.05 	(obj:0)
h-1,209                                          0.05 	(obj:0)
h-1,210                                          0.05 	(obj:0)
h-1,211                             0.126470592617989 	(obj:0)
h-1,212                              0.90686274766922 	(obj:0)
h-1,213                             0.538235318660736 	(obj:0)
h-1,216                            0.0109765190192404 	(obj:0)
h-1,217                                          0.05 	(obj:0)
h-1,218                                          0.05 	(obj:0)
h-1,223                                          0.05 	(obj:0)
h-1,227                                          0.05 	(obj:0)
h-1,228                                          0.05 	(obj:0)
h-1,229                                          0.05 	(obj:0)
h-1,230                                          0.05 	(obj:0)
h-1,231                                          0.05 	(obj:0)
h-1,232                                          0.05 	(obj:0)
h-1,233                                          0.05 	(obj:0)
h-1,234                                          0.05 	(obj:0)
h-1,235                                          0.05 	(obj:0)
h-1,236                                          0.05 	(obj:0)
h-1,237                                          0.05 	(obj:0)
h-1,238                                          0.05 	(obj:0)
h-1,239                             0.379411774873734 	(obj:0)
h-1,240                             0.946078431606293 	(obj:0)
h-1,241                              0.19705882370472 	(obj:0)
h-1,243                                          0.05 	(obj:0)
h-1,244                                          0.05 	(obj:0)
h-1,245                                          0.05 	(obj:0)
h-1,246                                          0.05 	(obj:0)
h-1,251                                          0.05 	(obj:0)
h-1,255                                          0.05 	(obj:0)
h-1,257                                          0.05 	(obj:0)
h-1,258                                          0.05 	(obj:0)
h-1,259                                          0.05 	(obj:0)
h-1,261                                          0.05 	(obj:0)
h-1,262                                          0.05 	(obj:0)
h-1,265                                          0.05 	(obj:0)
h-1,266                                          0.05 	(obj:0)
h-1,267                             0.842156875133514 	(obj:0)
h-1,268                             0.924509811401367 	(obj:0)
h-1,269                            0.0931372560560703 	(obj:0)
h-1,270                                          0.05 	(obj:0)
h-1,271                                          0.05 	(obj:0)
h-1,272                                          0.05 	(obj:0)
h-1,281                                          0.05 	(obj:0)
h-1,285                                          0.05 	(obj:0)
h-1,294                             0.075490203499794 	(obj:0)
h-1,295                             0.946078431606293 	(obj:0)
h-1,296                             0.897058832645416 	(obj:0)
h-1,297                                          0.05 	(obj:0)
h-1,298                                          0.05 	(obj:0)
h-1,299                                          0.05 	(obj:0)
h-1,300                                          0.05 	(obj:0)
h-1,309                                          0.05 	(obj:0)
h-1,310                                          0.05 	(obj:0)
h-1,322                             0.322549027204514 	(obj:0)
h-1,323                             0.946078431606293 	(obj:0)
h-1,324                             0.714705896377563 	(obj:0)
h-1,327                                          0.05 	(obj:0)
h-1,328                                          0.05 	(obj:0)
h-1,329                                          0.05 	(obj:0)
h-1,338                                          0.05 	(obj:0)
h-1,350                             0.499019634723663 	(obj:0)
h-1,351                             0.946078431606293 	(obj:0)
h-1,352                             0.251960796117783 	(obj:0)
h-1,355                                          0.05 	(obj:0)
h-1,360                                          0.05 	(obj:0)
h-1,361                                          0.05 	(obj:0)
h-1,366                                          0.05 	(obj:0)
h-1,377                             0.173529413342476 	(obj:0)
h-1,378                             0.879411768913269 	(obj:0)
h-1,379                             0.753921580314636 	(obj:0)
h-1,388                                          0.05 	(obj:0)
h-1,389                                          0.05 	(obj:0)
h-1,390                                          0.05 	(obj:0)
h-1,403                                          0.05 	(obj:0)
h-1,404                                          0.05 	(obj:0)
h-1,405                             0.436274510622025 	(obj:0)
h-1,406                                          0.95 	(obj:0)
h-1,407                             0.597058844566345 	(obj:0)
h-1,416                                          0.05 	(obj:0)
h-1,417                                          0.05 	(obj:0)
h-1,418                                          0.05 	(obj:0)
h-1,423                                          0.05 	(obj:0)
h-1,424                                          0.05 	(obj:0)
h-1,426                                          0.05 	(obj:0)
h-1,427                                          0.05 	(obj:0)
h-1,428                                          0.05 	(obj:0)
h-1,429                                          0.05 	(obj:0)
h-1,430                                          0.05 	(obj:0)
h-1,431                                          0.05 	(obj:0)
h-1,433                             0.620588254928589 	(obj:0)
h-1,434                             0.946078431606293 	(obj:0)
h-1,435                             0.267647069692612 	(obj:0)
h-1,436                                          0.05 	(obj:0)
h-1,444                                          0.05 	(obj:0)
h-1,445                                          0.05 	(obj:0)
h-1,446                                          0.05 	(obj:0)
h-1,447                                          0.05 	(obj:0)
h-1,451                                          0.05 	(obj:0)
h-1,452                                          0.05 	(obj:0)
h-1,453                                          0.05 	(obj:0)
h-1,454                                          0.05 	(obj:0)
h-1,455                                          0.05 	(obj:0)
h-1,456                                          0.05 	(obj:0)
h-1,457                                          0.05 	(obj:0)
h-1,458                                          0.05 	(obj:0)
h-1,459                                          0.05 	(obj:0)
h-1,460                             0.144117648899555 	(obj:0)
h-1,461                             0.959803926944733 	(obj:0)
h-1,462                             0.793137264251709 	(obj:0)
h-1,463                                          0.05 	(obj:0)
h-1,464                                          0.05 	(obj:0)
h-1,465                                          0.05 	(obj:0)
h-1,472                                          0.05 	(obj:0)
h-1,473                                          0.05 	(obj:0)
h-1,474                                          0.05 	(obj:0)
h-1,475                                          0.05 	(obj:0)
h-1,478                                          0.05 	(obj:0)
h-1,479                                          0.05 	(obj:0)
h-1,480                                          0.05 	(obj:0)
h-1,481                                          0.05 	(obj:0)
h-1,482                                          0.05 	(obj:0)
h-1,483                                          0.05 	(obj:0)
h-1,484                                          0.05 	(obj:0)
h-1,485                                          0.05 	(obj:0)
h-1,486                                          0.05 	(obj:0)
h-1,487                                          0.05 	(obj:0)
h-1,488                             0.520588237047195 	(obj:0)
h-1,489                                             1 	(obj:0)
h-1,490                             0.673529434204102 	(obj:0)
h-1,491                                          0.05 	(obj:0)
h-1,492                                          0.05 	(obj:0)
h-1,493                                          0.05 	(obj:0)
h-1,494                                          0.05 	(obj:0)
h-1,498                                          0.05 	(obj:0)
h-1,499                                          0.05 	(obj:0)
h-1,500                                          0.05 	(obj:0)
h-1,501                                          0.05 	(obj:0)
h-1,502                                          0.05 	(obj:0)
h-1,503                                          0.05 	(obj:0)
h-1,506                                          0.05 	(obj:0)
h-1,507                                          0.05 	(obj:0)
h-1,508                                          0.05 	(obj:0)
h-1,509                                          0.05 	(obj:0)
h-1,510                                          0.05 	(obj:0)
h-1,511                                          0.05 	(obj:0)
h-1,512                                          0.05 	(obj:0)
h-1,513                                          0.05 	(obj:0)
h-1,514                                          0.05 	(obj:0)
h-1,515                                          0.05 	(obj:0)
h-1,516                             0.642156887054443 	(obj:0)
h-1,517                                             1 	(obj:0)
h-1,518                             0.606862771511078 	(obj:0)
h-1,519                                          0.05 	(obj:0)
h-1,520                                          0.05 	(obj:0)
h-1,521                                          0.05 	(obj:0)
h-1,522                                          0.05 	(obj:0)
h-1,525                                          0.05 	(obj:0)
h-1,526                                          0.05 	(obj:0)
h-1,527                                          0.05 	(obj:0)
h-1,528                                          0.05 	(obj:0)
h-1,529                                          0.05 	(obj:0)
h-1,530                                          0.05 	(obj:0)
h-1,533                                          0.05 	(obj:0)
h-1,534                                          0.05 	(obj:0)
h-1,536                                          0.05 	(obj:0)
h-1,537                                          0.05 	(obj:0)
h-1,538                                          0.05 	(obj:0)
h-1,539                                          0.05 	(obj:0)
h-1,540                                          0.05 	(obj:0)
h-1,541                                          0.05 	(obj:0)
h-1,542                                          0.05 	(obj:0)
h-1,543                                          0.05 	(obj:0)
h-1,544                             0.944117653369904 	(obj:0)
h-1,545                                             1 	(obj:0)
h-1,546                             0.308823543787003 	(obj:0)
h-1,547                                          0.05 	(obj:0)
h-1,548                                          0.05 	(obj:0)
h-1,549                                          0.05 	(obj:0)
h-1,552                                          0.05 	(obj:0)
h-1,553                                          0.05 	(obj:0)
h-1,554                                          0.05 	(obj:0)
h-1,555                                          0.05 	(obj:0)
h-1,556                                          0.05 	(obj:0)
h-1,557                                          0.05 	(obj:0)
h-1,558                                          0.05 	(obj:0)
h-1,561                                          0.05 	(obj:0)
h-1,562                                          0.05 	(obj:0)
h-1,563                                          0.05 	(obj:0)
h-1,564                                          0.05 	(obj:0)
h-1,565                                          0.05 	(obj:0)
h-1,566                                          0.05 	(obj:0)
h-1,567                                          0.05 	(obj:0)
h-1,568                                          0.05 	(obj:0)
h-1,569                                          0.05 	(obj:0)
h-1,570                                          0.05 	(obj:0)
h-1,571                             0.289215686917305 	(obj:0)
h-1,572                             0.934313726425171 	(obj:0)
h-1,573                             0.946078431606293 	(obj:0)
h-1,574                             0.208823543787003 	(obj:0)
h-1,578                                          0.05 	(obj:0)
h-1,579                                          0.05 	(obj:0)
h-1,580                                          0.05 	(obj:0)
h-1,581                                          0.05 	(obj:0)
h-1,582                                          0.05 	(obj:0)
h-1,583                                          0.05 	(obj:0)
h-1,584                                          0.05 	(obj:0)
h-1,585                                          0.05 	(obj:0)
h-1,586                                          0.05 	(obj:0)
h-1,589                                          0.05 	(obj:0)
h-1,591                                          0.05 	(obj:0)
h-1,592                                          0.05 	(obj:0)
h-1,593                                          0.05 	(obj:0)
h-1,594                                          0.05 	(obj:0)
h-1,595                                          0.05 	(obj:0)
h-1,596                                          0.05 	(obj:0)
h-1,597                                          0.05 	(obj:0)
h-1,598                                          0.05 	(obj:0)
h-1,599                             0.602941203117371 	(obj:0)
h-1,600                             0.946078431606293 	(obj:0)
h-1,601                             0.753921580314636 	(obj:0)
h-1,605                                          0.05 	(obj:0)
h-1,606                                          0.05 	(obj:0)
h-1,607                                          0.05 	(obj:0)
h-1,608                                          0.05 	(obj:0)
h-1,609                                          0.05 	(obj:0)
h-1,610                                          0.05 	(obj:0)
h-1,611                                          0.05 	(obj:0)
h-1,612                                          0.05 	(obj:0)
h-1,613                                          0.05 	(obj:0)
h-1,618                                          0.05 	(obj:0)
h-1,619                                          0.05 	(obj:0)
h-1,620                                          0.05 	(obj:0)
h-1,621                                          0.05 	(obj:0)
h-1,622                                          0.05 	(obj:0)
h-1,623                                          0.05 	(obj:0)
h-1,624                                          0.05 	(obj:0)
h-1,625                                          0.05 	(obj:0)
h-1,626                            0.0892156876623631 	(obj:0)
h-1,627                             0.893137264251709 	(obj:0)
h-1,628                                             1 	(obj:0)
h-1,629                             0.424509805440903 	(obj:0)
h-1,634                                          0.05 	(obj:0)
h-1,635                                          0.05 	(obj:0)
h-1,636                                          0.05 	(obj:0)
h-1,637                                          0.05 	(obj:0)
h-1,638                                          0.05 	(obj:0)
h-1,639                                          0.05 	(obj:0)
h-1,640                                          0.05 	(obj:0)
h-1,641                                          0.05 	(obj:0)
h-1,647                                          0.05 	(obj:0)
h-1,648                                          0.05 	(obj:0)
h-1,655                             0.726470601558685 	(obj:0)
h-1,656                             0.640196096897125 	(obj:0)
h-1,662                                          0.05 	(obj:0)
h-1,663                                          0.05 	(obj:0)
h-1,664                                          0.05 	(obj:0)
h-1,665                                          0.05 	(obj:0)
h-1,666                                          0.05 	(obj:0)
h-1,667                                          0.05 	(obj:0)
h-1,668                                          0.05 	(obj:0)
h-1,669                                          0.05 	(obj:0)
h-1,695                                          0.05 	(obj:0)
h-1,696                                          0.05 	(obj:0)
h-1,697                                          0.05 	(obj:0)
h-1,724                                          0.05 	(obj:0)
h-1,769                                          0.05 	(obj:0)
h-1,770                                          0.05 	(obj:0)
h-1,773                                          0.05 	(obj:0)
h-1,774                                          0.05 	(obj:0)
h-1,775                                          0.05 	(obj:0)
z0,0                                -1.96923291209363 	(obj:0)
a0,0                                0.122465194916703 	(obj:0)
z0,1                                 1.30142373963251 	(obj:0)
a0,1                                0.786071281251923 	(obj:0)
z0,2                                 3.83394071020218 	(obj:0)
a0,2                                0.978842181926682 	(obj:0)
z0,3                                -2.31641502356759 	(obj:0)
a0,3                               0.0897680794846591 	(obj:0)
z0,4                                 1.88135481924656 	(obj:0)
a0,4                                0.867767941701485 	(obj:0)
z0,5                                 2.48845444040911 	(obj:0)
a0,5                                0.923338404107495 	(obj:0)
z0,6                                 2.09016334390545 	(obj:0)
a0,6                                0.889953010885496 	(obj:0)
z0,7                                -1.99495248861441 	(obj:0)
a0,7                                0.119734175794893 	(obj:0)
z0,8                                -0.76974502755876 	(obj:0)
a0,8                                0.316538994049067 	(obj:0)
z0,9                               0.0161553602124447 	(obj:0)
a0,9                                0.504037010067526 	(obj:0)
z1,0                                -6.81186569677833 	(obj:0)
a1,0                              0.00110663031394716 	(obj:0)
z1,1                                 3.67553574491112 	(obj:0)
a1,1                                0.975285258160696 	(obj:-1)
z1,2                               -0.837294020255281 	(obj:0)
a1,2                                0.302106548042561 	(obj:1)
z1,3                                -3.30693804957821 	(obj:0)
a1,3                               0.0353339174012497 	(obj:0)
z1,4                                -4.43218599508412 	(obj:0)
a1,4                               0.0117499634953847 	(obj:0)
z1,5                                -4.45123628193625 	(obj:0)
a1,5                               0.0115272502659944 	(obj:0)
z1,6                                -3.42254009848401 	(obj:0)
a1,6                               0.0315971682704455 	(obj:0)
z1,7                                -3.15801273936893 	(obj:0)
a1,7                               0.0407756507824923 	(obj:0)
z1,8                                -3.47666266121648 	(obj:0)
a1,8                               0.0299835139452502 	(obj:0)
z1,9                                 -5.0425372622769 	(obj:0)
a1,9                              0.00641308864077404 	(obj:0)
